<number of tasks>
50

<cycle time>
1000

<order strength>
0.596


<task times>
1 481
2 552
3 523
4 220
5 494
6 225
7 76
8 109
9 178
10 271
11 388
12 247
13 505
14 134
15 142
16 160
17 86
18 142
19 196
20 140
21 431
22 183
23 466
24 94
25 141
26 61
27 153
28 148
29 56
30 21
31 242
32 540
33 101
34 90
35 255
36 329
37 229
38 197
39 140
40 27
41 52
42 270
43 430
44 248
45 317
46 491
47 146
48 82
49 258
50 63

<precedence relations>
1,16
1,26
2,23
3,6
4,8
4,28
5,7
6,9
6,10
6,11
6,12
7,9
7,12
7,19
8,14
9,13
9,15
9,17
9,18
10,13
10,14
10,16
10,17
10,18
10,23
11,18
11,30
11,32
12,24
12,25
12,30
13,20
13,21
14,19
15,23
15,28
15,30
16,19
16,31
17,22
17,31
17,32
18,31
18,43
19,27
19,36
20,25
20,35
21,24
21,27
22,24
22,42
23,25
23,26
23,35
24,28
24,41
25,29
25,31
25,32
26,33
26,34
26,41
26,42
27,29
27,30
27,32
28,33
28,34
28,35
29,34
29,37
30,33
30,37
31,33
31,36
31,49
32,42
32,50
33,39
37,38
38,39
38,40
38,41
38,42
38,43
38,44
39,48
40,45
40,47
42,46
43,49
43,50
44,46
44,47

<end>
